
(set-option :produce-models true)
(set-option :inline-size-limit 10000)

(declare-const var0 String)

(push 1)
(assert (str.in.re var0 (re.* (re.range "\x01" "\xff"))))
(assert (str.in.re var0 (re.++ (re.++ re.begin-anchor (re.++ ((_ re.loop 3 5) (re.union (str.to.re "h") (re.union (str.to.re "t") (re.union (str.to.re "t") (re.union (str.to.re "p") (re.union (str.to.re "|") (re.union (str.to.re "f") (re.union (str.to.re "t") (re.union (str.to.re "p") (re.union (str.to.re "|") (re.union (str.to.re "w") (re.union (str.to.re "a") (re.union (str.to.re "p") (re.union (str.to.re "|") (re.union (str.to.re "h") (re.union (str.to.re "t") (re.union (str.to.re "t") (re.union (str.to.re "p") (str.to.re "s"))))))))))))))))))) (re.++ (str.to.re ":") (re.++ (str.to.re "/") (re.++ (str.to.re "/") (re.++ (re.union (re.range "a" "z") (re.union (re.range "A" "Z") (re.union (re.range "0" "9") (str.to.re "_")))) (re.++ (str.to.re "w") (re.++ (str.to.re "w") (re.++ (str.to.re ".") (re.++ (re.* (re.union (re.range "a" "z") (re.union (re.range "A" "Z") (re.union (re.range "0" "9") (str.to.re "_"))))) (re.++ (str.to.re ".") ((_ re.loop 2 3) (re.union (str.to.re "c") (re.union (str.to.re "o") (re.union (str.to.re "m") (re.union (str.to.re "|") (re.union (str.to.re "n") (re.union (str.to.re "e") (str.to.re "t"))))))))))))))))))) re.end-anchor)))	; match!==null
(assert (not (str.in.re ((_ str.extract 1) var0 (re.++ (re.++ re.begin-anchor (re.++ ((_ re.loop 3 5) (re.union (str.to.re "h") (re.union (str.to.re "t") (re.union (str.to.re "t") (re.union (str.to.re "p") (re.union (str.to.re "|") (re.union (str.to.re "f") (re.union (str.to.re "t") (re.union (str.to.re "p") (re.union (str.to.re "|") (re.union (str.to.re "w") (re.union (str.to.re "a") (re.union (str.to.re "p") (re.union (str.to.re "|") (re.union (str.to.re "h") (re.union (str.to.re "t") (re.union (str.to.re "t") (re.union (str.to.re "p") (str.to.re "s"))))))))))))))))))) (re.++ (str.to.re ":") (re.++ (str.to.re "/") (re.++ (str.to.re "/") (re.++ (re.union (re.range "a" "z") (re.union (re.range "A" "Z") (re.union (re.range "0" "9") (str.to.re "_")))) (re.++ (str.to.re "w") (re.++ (str.to.re "w") (re.++ (str.to.re ".") (re.++ (re.* (re.union (re.range "a" "z") (re.union (re.range "A" "Z") (re.union (re.range "0" "9") (str.to.re "_"))))) (re.++ (str.to.re ".") ((_ re.loop 2 3) (re.union (str.to.re "c") (re.union (str.to.re "o") (re.union (str.to.re "m") (re.union (str.to.re "|") (re.union (str.to.re "n") (re.union (str.to.re "e") (str.to.re "t"))))))))))))))))))) re.end-anchor)) (str.to.re "\x00"))))
;match[1]!==null
(assert (str.in.re ((_ str.extract 1) var0 (re.++ (re.++ re.begin-anchor (re.++ ((_ re.loop 3 5) (re.union (str.to.re "h") (re.union (str.to.re "t") (re.union (str.to.re "t") (re.union (str.to.re "p") (re.union (str.to.re "|") (re.union (str.to.re "f") (re.union (str.to.re "t") (re.union (str.to.re "p") (re.union (str.to.re "|") (re.union (str.to.re "w") (re.union (str.to.re "a") (re.union (str.to.re "p") (re.union (str.to.re "|") (re.union (str.to.re "h") (re.union (str.to.re "t") (re.union (str.to.re "t") (re.union (str.to.re "p") (str.to.re "s"))))))))))))))))))) (re.++ (str.to.re ":") (re.++ (str.to.re "/") (re.++ (str.to.re "/") (re.++ (re.union (re.range "a" "z") (re.union (re.range "A" "Z") (re.union (re.range "0" "9") (str.to.re "_")))) (re.++ (str.to.re "w") (re.++ (str.to.re "w") (re.++ (str.to.re ".") (re.++ (re.* (re.union (re.range "a" "z") (re.union (re.range "A" "Z") (re.union (re.range "0" "9") (str.to.re "_"))))) (re.++ (str.to.re ".") ((_ re.loop 2 3) (re.union (str.to.re "c") (re.union (str.to.re "o") (re.union (str.to.re "m") (re.union (str.to.re "|") (re.union (str.to.re "n") (re.union (str.to.re "e") (str.to.re "t"))))))))))))))))))) re.end-anchor)) (re.++ re.all(re.+ (re.range "a" "z")) re.all) ))
;/[a-z]+/.test(match[1]) == true
(check-sat)
(get-model)
(pop 1)
(push 1)
(assert (str.in.re var0 (re.* (re.range "\x01" "\xff"))))
(assert (str.in.re var0 (re.++ (re.++ re.begin-anchor (re.++ ((_ re.loop 3 5) (re.union (str.to.re "h") (re.union (str.to.re "t") (re.union (str.to.re "t") (re.union (str.to.re "p") (re.union (str.to.re "|") (re.union (str.to.re "f") (re.union (str.to.re "t") (re.union (str.to.re "p") (re.union (str.to.re "|") (re.union (str.to.re "w") (re.union (str.to.re "a") (re.union (str.to.re "p") (re.union (str.to.re "|") (re.union (str.to.re "h") (re.union (str.to.re "t") (re.union (str.to.re "t") (re.union (str.to.re "p") (str.to.re "s"))))))))))))))))))) (re.++ (str.to.re ":") (re.++ (str.to.re "/") (re.++ (str.to.re "/") (re.++ (re.union (re.range "a" "z") (re.union (re.range "A" "Z") (re.union (re.range "0" "9") (str.to.re "_")))) (re.++ (str.to.re "w") (re.++ (str.to.re "w") (re.++ (str.to.re ".") (re.++ (re.* (re.union (re.range "a" "z") (re.union (re.range "A" "Z") (re.union (re.range "0" "9") (str.to.re "_"))))) (re.++ (str.to.re ".") ((_ re.loop 2 3) (re.union (str.to.re "c") (re.union (str.to.re "o") (re.union (str.to.re "m") (re.union (str.to.re "|") (re.union (str.to.re "n") (re.union (str.to.re "e") (str.to.re "t"))))))))))))))))))) re.end-anchor)))	; match!==null
(assert (not (str.in.re ((_ str.extract 1) var0 (re.++ (re.++ re.begin-anchor (re.++ ((_ re.loop 3 5) (re.union (str.to.re "h") (re.union (str.to.re "t") (re.union (str.to.re "t") (re.union (str.to.re "p") (re.union (str.to.re "|") (re.union (str.to.re "f") (re.union (str.to.re "t") (re.union (str.to.re "p") (re.union (str.to.re "|") (re.union (str.to.re "w") (re.union (str.to.re "a") (re.union (str.to.re "p") (re.union (str.to.re "|") (re.union (str.to.re "h") (re.union (str.to.re "t") (re.union (str.to.re "t") (re.union (str.to.re "p") (str.to.re "s"))))))))))))))))))) (re.++ (str.to.re ":") (re.++ (str.to.re "/") (re.++ (str.to.re "/") (re.++ (re.union (re.range "a" "z") (re.union (re.range "A" "Z") (re.union (re.range "0" "9") (str.to.re "_")))) (re.++ (str.to.re "w") (re.++ (str.to.re "w") (re.++ (str.to.re ".") (re.++ (re.* (re.union (re.range "a" "z") (re.union (re.range "A" "Z") (re.union (re.range "0" "9") (str.to.re "_"))))) (re.++ (str.to.re ".") ((_ re.loop 2 3) (re.union (str.to.re "c") (re.union (str.to.re "o") (re.union (str.to.re "m") (re.union (str.to.re "|") (re.union (str.to.re "n") (re.union (str.to.re "e") (str.to.re "t"))))))))))))))))))) re.end-anchor)) (str.to.re "\x00"))))	
;match[1]!==null
(assert (not (str.in.re ((_ str.extract 1) var0 (re.++ (re.++ re.begin-anchor (re.++ ((_ re.loop 3 5) (re.union (str.to.re "h") (re.union (str.to.re "t") (re.union (str.to.re "t") (re.union (str.to.re "p") (re.union (str.to.re "|") (re.union (str.to.re "f") (re.union (str.to.re "t") (re.union (str.to.re "p") (re.union (str.to.re "|") (re.union (str.to.re "w") (re.union (str.to.re "a") (re.union (str.to.re "p") (re.union (str.to.re "|") (re.union (str.to.re "h") (re.union (str.to.re "t") (re.union (str.to.re "t") (re.union (str.to.re "p") (str.to.re "s"))))))))))))))))))) (re.++ (str.to.re ":") (re.++ (str.to.re "/") (re.++ (str.to.re "/") (re.++ (re.union (re.range "a" "z") (re.union (re.range "A" "Z") (re.union (re.range "0" "9") (str.to.re "_")))) (re.++ (str.to.re "w") (re.++ (str.to.re "w") (re.++ (str.to.re ".") (re.++ (re.* (re.union (re.range "a" "z") (re.union (re.range "A" "Z") (re.union (re.range "0" "9") (str.to.re "_"))))) (re.++ (str.to.re ".") ((_ re.loop 2 3) (re.union (str.to.re "c") (re.union (str.to.re "o") (re.union (str.to.re "m") (re.union (str.to.re "|") (re.union (str.to.re "n") (re.union (str.to.re "e") (str.to.re "t"))))))))))))))))))) re.end-anchor)) (re.++ re.all(re.+ (re.range "a" "z")) re.all) )))
;/[a-z]+/.test(match[1]) == false	
(check-sat)
(get-model)
(pop 1)
(push 1)
(assert (str.in.re var0 (re.* (re.range "\x01" "\xff"))))
(assert (str.in.re var0 (re.++ (re.++ re.begin-anchor (re.++ ((_ re.loop 3 5) (re.union (str.to.re "h") (re.union (str.to.re "t") (re.union (str.to.re "t") (re.union (str.to.re "p") (re.union (str.to.re "|") (re.union (str.to.re "f") (re.union (str.to.re "t") (re.union (str.to.re "p") (re.union (str.to.re "|") (re.union (str.to.re "w") (re.union (str.to.re "a") (re.union (str.to.re "p") (re.union (str.to.re "|") (re.union (str.to.re "h") (re.union (str.to.re "t") (re.union (str.to.re "t") (re.union (str.to.re "p") (str.to.re "s"))))))))))))))))))) (re.++ (str.to.re ":") (re.++ (str.to.re "/") (re.++ (str.to.re "/") (re.++ (re.union (re.range "a" "z") (re.union (re.range "A" "Z") (re.union (re.range "0" "9") (str.to.re "_")))) (re.++ (str.to.re "w") (re.++ (str.to.re "w") (re.++ (str.to.re ".") (re.++ (re.* (re.union (re.range "a" "z") (re.union (re.range "A" "Z") (re.union (re.range "0" "9") (str.to.re "_"))))) (re.++ (str.to.re ".") ((_ re.loop 2 3) (re.union (str.to.re "c") (re.union (str.to.re "o") (re.union (str.to.re "m") (re.union (str.to.re "|") (re.union (str.to.re "n") (re.union (str.to.re "e") (str.to.re "t"))))))))))))))))))) re.end-anchor)))	; match!==null
(assert (str.in.re ((_ str.extract 1) var0 (re.++ (re.++ re.begin-anchor (re.++ ((_ re.loop 3 5) (re.union (str.to.re "h") (re.union (str.to.re "t") (re.union (str.to.re "t") (re.union (str.to.re "p") (re.union (str.to.re "|") (re.union (str.to.re "f") (re.union (str.to.re "t") (re.union (str.to.re "p") (re.union (str.to.re "|") (re.union (str.to.re "w") (re.union (str.to.re "a") (re.union (str.to.re "p") (re.union (str.to.re "|") (re.union (str.to.re "h") (re.union (str.to.re "t") (re.union (str.to.re "t") (re.union (str.to.re "p") (str.to.re "s"))))))))))))))))))) (re.++ (str.to.re ":") (re.++ (str.to.re "/") (re.++ (str.to.re "/") (re.++ (re.union (re.range "a" "z") (re.union (re.range "A" "Z") (re.union (re.range "0" "9") (str.to.re "_")))) (re.++ (str.to.re "w") (re.++ (str.to.re "w") (re.++ (str.to.re ".") (re.++ (re.* (re.union (re.range "a" "z") (re.union (re.range "A" "Z") (re.union (re.range "0" "9") (str.to.re "_"))))) (re.++ (str.to.re ".") ((_ re.loop 2 3) (re.union (str.to.re "c") (re.union (str.to.re "o") (re.union (str.to.re "m") (re.union (str.to.re "|") (re.union (str.to.re "n") (re.union (str.to.re "e") (str.to.re "t"))))))))))))))))))) re.end-anchor)) (str.to.re "\x00")))
;match[1]==null
(check-sat)
(get-model)
(pop 1)
(push 1)
(assert (str.in.re var0 (re.* (re.range "\x01" "\xff"))))
(assert (not (str.in.re var0 (re.++ (re.++ re.begin-anchor (re.++ ((_ re.loop 3 5) (re.union (str.to.re "h") (re.union (str.to.re "t") (re.union (str.to.re "t") (re.union (str.to.re "p") (re.union (str.to.re "|") (re.union (str.to.re "f") (re.union (str.to.re "t") (re.union (str.to.re "p") (re.union (str.to.re "|") (re.union (str.to.re "w") (re.union (str.to.re "a") (re.union (str.to.re "p") (re.union (str.to.re "|") (re.union (str.to.re "h") (re.union (str.to.re "t") (re.union (str.to.re "t") (re.union (str.to.re "p") (str.to.re "s"))))))))))))))))))) (re.++ (str.to.re ":") (re.++ (str.to.re "/") (re.++ (str.to.re "/") (re.++ (re.union (re.range "a" "z") (re.union (re.range "A" "Z") (re.union (re.range "0" "9") (str.to.re "_")))) (re.++ (str.to.re "w") (re.++ (str.to.re "w") (re.++ (str.to.re ".") (re.++ (re.* (re.union (re.range "a" "z") (re.union (re.range "A" "Z") (re.union (re.range "0" "9") (str.to.re "_"))))) (re.++ (str.to.re ".") ((_ re.loop 2 3) (re.union (str.to.re "c") (re.union (str.to.re "o") (re.union (str.to.re "m") (re.union (str.to.re "|") (re.union (str.to.re "n") (re.union (str.to.re "e") (str.to.re "t"))))))))))))))))))) re.end-anchor))))	; match == null
(check-sat)
(get-model)
(pop 1)
(exit)
